p cnf 48 37
-4 21 0
-4 10 0
-4 22 0
-12 13 0
-16 19 0
-19 14 0
-20 14 0
-21 10 0
-25 24 0
-25 23 0
-29 28 0
-30 28 0
-30 19 0
-30 14 0
-40 14 0
-41 14 0
-42 14 0
-46 43 0
-46 44 0
-47 43 0
-47 44 0
-48 43 0
-48 44 0
-15 14 0
-16 14 0
-17 14 0
-20 19 0
-28 27 0
-27 28 0
-29 27 0
-30 27 0
-38 37 0
-41 40 0
-42 40 0
-44 43 0
-47 46 0
-48 46 0

